TYPE : Vertex Cover
DIMENSION: 40
EDGE_DATA_SECTION:
0 2
0 3
0 5
0 26
0 28
0 32
0 33
0 37
1 4
1 13
1 17
1 20
2 4
2 7
2 15
2 17
2 24
2 25
2 26
2 28
2 37
2 38
3 8
3 9
3 13
3 17
3 24
3 25
3 26
3 35
3 39
4 5
4 6
4 7
4 10
4 14
4 21
4 24
4 33
4 35
4 36
4 38
5 7
5 9
5 12
5 16
5 21
5 27
6 13
6 15
6 16
6 23
6 25
6 27
6 29
6 31
6 33
6 34
6 35
6 38
7 8
7 13
7 14
7 15
7 26
7 30
7 36
7 37
7 38
8 10
8 18
8 19
8 20
8 22
8 23
8 30
8 32
8 38
9 27
9 28
9 29
9 33
9 37
10 16
10 20
10 22
10 23
10 30
11 16
11 22
11 23
11 25
11 31
11 34
12 14
12 15
12 17
12 28
13 14
13 26
13 29
13 30
14 20
14 24
14 25
15 21
15 22
15 24
15 28
15 30
15 37
16 19
16 20
16 21
16 31
16 32
16 37
16 38
17 18
17 22
17 24
17 25
17 29
17 31
17 32
17 33
18 22
18 23
18 25
18 26
18 29
18 32
19 29
19 31
19 33
19 35
20 30
20 34
21 38
22 33
22 38
23 35
23 37
23 38
24 25
24 27
24 32
24 38
25 30
25 31
25 35
25 36
26 27
26 29
26 36
26 39
27 28
27 39
28 31
28 32
28 35
28 37
29 30
29 39
30 37
30 38
31 38
32 35
32 37
32 39
-1
VERTEX_DEGREE:
8.0 4.0 11.0 10.0 13.0 8.0 13.0 12.0 11.0 7.0 7.0 6.0 5.0 8.0 7.0 10.0 11.0 12.0 8.0 6.0 7.0 5.0 8.0 8.0 10.0 12.0 10.0 7.0 10.0 9.0 10.0 8.0 10.0 7.0 3.0 8.0 4.0 10.0 12.0 5.0
VERTEX_COVER:
2 3 4 5 8 13 14 15 16 17 20 22 23 25 26 27 28 29 30 31 32 33 34 35 36 37 38
EOF
